\ Equation counts
\     Total        E        G        L        N        X        C        B
\	215	215	0	0
\
\ Variable counts
\                  x        b        i      s1s      s2s       sc       si
\     Total     cont   binary  integer     sos1     sos2    scont     sint
\	80	80

\ Nonzero counts
\     Total    const       NL      DLL
\
\
Minimize
 obj: [ + 10.0 x_1 * x_5 - 2.0 x_1 * x_12 + 17.5 x_1 * x_15 - 17.0 x_1 * x_19 - 24.0 x_1 * x_23 - 9.0 x_1 * x_28 + 21.5 x_1 * x_32 + 23.5 x_1 * x_33 - 17.0 x_1 * x_34 + 7.5 x_1 * x_35 + 0.5 x_1 * x_36 + 3.5 x_1 * x_42 - 6.5 x_1 * x_48 + 24.5 x_1 * x_50 - 19.5 x_1 * x_52 - 18.0 x_1 * x_53 + 22.0 x_1 * x_58 + 22.0 x_1 * x_63 - 12.5 x_1 * x_67 - 10.0 x_1 * x_76 + 20.5 x_2 * x_13 - 18.0 x_2 * x_15 - 21.0 x_2 * x_19 - 3.5 x_2 * x_27 + 20.5 x_2 * x_42 + 11.5 x_2 * x_43 - 6.0 x_2 * x_49 - 9.5 x_2 * x_50 + 19.5 x_2 * x_51 + 10.5 x_2 * x_60 - 12.0 x_2 * x_62 - 9.0 x_2 * x_63 - 9.0 x_2 * x_68 + 11.0 x_2 * x_74 + 6.5 x_2 * x_77 - 19.5 x_3 * x_4 + 14.0 x_3 * x_6 - 10.5 x_3 * x_9 + 1.0 x_3 * x_16 + 10.5 x_3 * x_28 + 8.5 x_3 * x_42 - 11.0 x_3 * x_47 - 13.5 x_3 * x_53 - 6.5 x_3 * x_55 - 16.0 x_3 * x_60 + 8.0 x_3 * x_61 - 1.5 x_3 * x_62 + 11.5 x_3 * x_64 + 24.5 x_3 * x_65 - 17.5 x_3 * x_67 - 6.0 x_3 * x_68 - 20.0 x_3 * x_75 + 2.5 x_3 * x_76 - 0.5 x_3 * x_80 - 19.5 x_4 * x_3 + 17.5 x_4 * x_6 - 12.0 x_4 * x_9 + 20.5 x_4 * x_21 - 21.5 x_4 * x_22 + 8.5 x_4 * x_37 - 19.5 x_4 * x_48 - 1.5 x_4 * x_51 + 7.0 x_4 * x_53 - 7.0 x_4 * x_54 - 16.5 x_4 * x_56 - 2.0 x_4 * x_57 + 11.0 x_4 * x_61 - 21.5 x_4 * x_69 - 11.0 x_4 * x_70 + 12.0 x_4 * x_75 - 5.5 x_4 * x_76 - 6.5 x_4 * x_80 + 10.0 x_5 * x_1 + 9.5 x_5 * x_14 - 20.5 x_5 * x_15 - 8.0 x_5 * x_16 - 5.5 x_5 * x_24 - 12.0 x_5 * x_25 + 6.0 x_5 * x_27 + 15.0 x_5 * x_29 + 22.5 x_5 * x_32 - 16.5 x_5 * x_33 + 19.5 x_5 * x_35 - 8.0 x_5 * x_42 - 21.0 x_5 * x_47 + 12.0 x_5 * x_48 - 2.0 x_5 * x_50 - 1.5 x_5 * x_51 + 8.5 x_5 * x_52 + 19.0 x_5 * x_54 - 20.5 x_5 * x_57 - 10.0 x_5 * x_58 - 17.0 x_5 * x_61 + 0.5 x_5 * x_63 - 7.0 x_5 * x_66 - 5.0 x_5 * x_78 + 14.0 x_6 * x_3 + 17.5 x_6 * x_4 + 10.5 x_6 * x_6 + 3.5 x_6 * x_7 + 15.0 x_6 * x_8 + 13.0 x_6 * x_24 + 14.0 x_6 * x_25 - 19.5 x_6 * x_26 + 17.0 x_6 * x_29 + 7.0 x_6 * x_32 - 4.0 x_6 * x_33 - 7.5 x_6 * x_43 - 15.5 x_6 * x_48 - 8.5 x_6 * x_50 - 21.5 x_6 * x_54 - 22.5 x_6 * x_55 - 7.5 x_6 * x_57 - 22.0 x_6 * x_59 - 20.0 x_6 * x_62 - 17.5 x_6 * x_63 + 9.0 x_6 * x_64 - 18.5 x_6 * x_65 + 15.5 x_6 * x_72 - 12.0 x_6 * x_75 - 9.0 x_6 * x_76 + 16.0 x_6 * x_80 + 3.5 x_7 * x_6 - 11.5 x_7 * x_7 + 9.5 x_7 * x_8 + 7.0 x_7 * x_10 - 7.0 x_7 * x_16 - 2.0 x_7 * x_17 + 23.5 x_7 * x_21 + 18.0 x_7 * x_22 - 9.5 x_7 * x_26 + 17.5 x_7 * x_27 - 11.5 x_7 * x_32 + 20.0 x_7 * x_33 - 10.0 x_7 * x_36 - 18.5 x_7 * x_40 + 12.0 x_7 * x_42 + 22.5 x_7 * x_43 - 16.0 x_7 * x_44 - 2.5 x_7 * x_50 - 8.0 x_7 * x_53 - 13.5 x_7 * x_61 - 3.0 x_7 * x_62 + 24.5 x_7 * x_67 - 17.5 x_7 * x_68 + 11.5 x_7 * x_72 - 20.5 x_7 * x_76 + 15.0 x_8 * x_6 + 9.5 x_8 * x_7 + 4.5 x_8 * x_10 - 7.0 x_8 * x_16 + 22.0 x_8 * x_17 - 12.0 x_8 * x_19 + 21.0 x_8 * x_22 + 9.0 x_8 * x_27 - 12.5 x_8 * x_33 - 15.5 x_8 * x_36 + 24.0 x_8 * x_40 - 10.0 x_8 * x_43 + 6.0 x_8 * x_50 - 4.0 x_8 * x_51 + 23.5 x_8 * x_60 + 11.5 x_8 * x_61 + 22.5 x_8 * x_62 + 7.0 x_8 * x_65 + 15.0 x_8 * x_69 + 17.0 x_8 * x_75 - 10.5 x_9 * x_3 - 12.0 x_9 * x_4 + 6.0 x_9 * x_14 + 18.5 x_9 * x_25 - 18.0 x_9 * x_31 + 15.0 x_9 * x_36 - 22.0 x_9 * x_37 - 8.0 x_9 * x_43 - 1.0 x_9 * x_45 + 20.5 x_9 * x_48 - 12.5 x_9 * x_52 - 21.0 x_9 * x_54 - 22.0 x_9 * x_57 + 19.5 x_9 * x_61 - 5.5 x_9 * x_66 - 16.0 x_9 * x_68 - 9.0 x_9 * x_70 - 3.5 x_9 * x_75 - 17.5 x_9 * x_78 + 7.0 x_10 * x_7 + 4.5 x_10 * x_8 - 16.5 x_10 * x_11 + 2.5 x_10 * x_17 + 13.0 x_10 * x_22 + 9.5 x_10 * x_24 - 15.0 x_10 * x_26 + 9.0 x_10 * x_27 - 9.5 x_10 * x_31 + 23.5 x_10 * x_33 - 14.0 x_10 * x_35 + 18.5 x_10 * x_37 - 4.5 x_10 * x_41 - 16.5 x_10 * x_44 + 21.0 x_10 * x_47 + 21.5 x_10 * x_51 - 9.0 x_10 * x_55 + 4.0 x_10 * x_56 + 24.0 x_10 * x_57 + 4.5 x_10 * x_58 + 17.0 x_10 * x_62 - 11.0 x_10 * x_65 - 16.5 x_10 * x_66 + 21.5 x_10 * x_67 - 9.0 x_10 * x_79 - 16.5 x_11 * x_10 + 23.0 x_11 * x_13 - 4.0 x_11 * x_14 - 7.0 x_11 * x_15 - 9.0 x_11 * x_19 - 2.5 x_11 * x_20 + 22.0 x_11 * x_26 + 16.5 x_11 * x_29 - 15.0 x_11 * x_30 - 20.0 x_11 * x_31 + 8.0 x_11 * x_39 + 24.0 x_11 * x_43 - 19.0 x_11 * x_46 + 5.5 x_11 * x_48 - 13.0 x_11 * x_51 + 18.5 x_11 * x_53 - 17.0 x_11 * x_55 - 1.0 x_11 * x_56 - 7.5 x_11 * x_58 + 8.0 x_11 * x_62 - 9.5 x_11 * x_63 - 23.0 x_11 * x_65 + 24.5 x_11 * x_77 - 2.0 x_11 * x_80 - 2.0 x_12 * x_1 + 1.5 x_12 * x_12 + 19.5 x_12 * x_13 + 6.5 x_12 * x_15 + 16.5 x_12 * x_19 - 24.0 x_12 * x_20 - 15.0 x_12 * x_23 + 2.0 x_12 * x_34 - 2.5 x_12 * x_35 - 0.5 x_12 * x_36 + 12.0 x_12 * x_43 - 16.5 x_12 * x_48 - 2.5 x_12 * x_60 - 24.0 x_12 * x_61 + 21.0 x_12 * x_63 + 15.5 x_12 * x_69 - 18.0 x_12 * x_74 + 20.5 x_13 * x_2 + 23.0 x_13 * x_11 + 19.5 x_13 * x_12 + 21.5 x_13 * x_17 - 17.5 x_13 * x_18 - 7.5 x_13 * x_27 + 20.0 x_13 * x_30 - 9.5 x_13 * x_35 + 24.5 x_13 * x_38 + 19.5 x_13 * x_42 + 4.0 x_13 * x_47 - 24.0 x_13 * x_54 - 3.5 x_13 * x_56 - 7.5 x_13 * x_59 - 13.5 x_13 * x_62 - 9.5 x_13 * x_65 - 14.0 x_13 * x_68 - 2.0 x_13 * x_70 - 1.0 x_13 * x_71 + 9.5 x_14 * x_5 + 6.0 x_14 * x_9 - 4.0 x_14 * x_11 + 24.0 x_14 * x_14 - 17.0 x_14 * x_19 + 6.0 x_14 * x_23 - 12.5 x_14 * x_28 - 6.5 x_14 * x_33 + 3.5 x_14 * x_37 - 14.0 x_14 * x_43 - 20.0 x_14 * x_44 + 15.0 x_14 * x_48 + 15.0 x_14 * x_52 + 24.0 x_14 * x_56 - 24.5 x_14 * x_57 - 1.0 x_14 * x_60 - 14.0 x_14 * x_63 - 3.0 x_14 * x_69 - 17.5 x_14 * x_70 - 9.0 x_14 * x_77 + 17.5 x_15 * x_1 - 18.0 x_15 * x_2 - 20.5 x_15 * x_5 - 7.0 x_15 * x_11 + 6.5 x_15 * x_12 - 24.0 x_15 * x_15 - 20.0 x_15 * x_19 - 8.0 x_15 * x_22 - 10.5 x_15 * x_27 - 9.5 x_15 * x_32 - 23.5 x_15 * x_36 + 7.5 x_15 * x_41 + 1.5 x_15 * x_45 - 2.0 x_15 * x_47 - 17.5 x_15 * x_62 - 22.0 x_15 * x_63 - 8.5 x_15 * x_66 + 19.0 x_15 * x_67 + 21.0 x_15 * x_68 + 5.0 x_15 * x_72 + 19.5 x_15 * x_73 + 0.5 x_15 * x_77 + 4.0 x_15 * x_78 + 16.0 x_15 * x_79 + 1.0 x_16 * x_3 - 8.0 x_16 * x_5 - 7.0 x_16 * x_7 - 7.0 x_16 * x_8 - 8.5 x_16 * x_16 + 1.0 x_16 * x_19 - 14.5 x_16 * x_21 + 19.5 x_16 * x_22 - 15.0 x_16 * x_23 + 21.0 x_16 * x_27 - 1.5 x_16 * x_28 + 11.0 x_16 * x_31 - 6.5 x_16 * x_35 - 21.5 x_16 * x_36 + 23.5 x_16 * x_38 + 16.5 x_16 * x_39 - 6.5 x_16 * x_40 + 20.0 x_16 * x_50 + 22.0 x_16 * x_57 + 15.5 x_16 * x_61 - 22.0 x_16 * x_64 - 16.0 x_16 * x_68 + 20.5 x_16 * x_69 + 2.0 x_16 * x_70 + 22.5 x_16 * x_79 - 2.0 x_17 * x_7 + 22.0 x_17 * x_8 + 2.5 x_17 * x_10 + 21.5 x_17 * x_13 - 13.0 x_17 * x_17 - 2.5 x_17 * x_27 - 5.5 x_17 * x_30 - 23.5 x_17 * x_36 - 24.5 x_17 * x_38 + 12.0 x_17 * x_44 - 14.0 x_17 * x_46 - 13.0 x_17 * x_51 + 23.0 x_17 * x_53 - 4.0 x_17 * x_54 + 8.5 x_17 * x_55 + 21.0 x_17 * x_59 + 22.0 x_17 * x_71 - 22.0 x_17 * x_75 - 20.5 x_17 * x_76 + 8.5 x_17 * x_78 - 17.5 x_18 * x_13 + 9.0 x_18 * x_27 - 5.0 x_18 * x_33 + 1.0 x_18 * x_34 - 16.5 x_18 * x_35 + 0.5 x_18 * x_38 + 19.0 x_18 * x_48 + 2.5 x_18 * x_49 - 7.5 x_18 * x_50 + 9.5 x_18 * x_51 - 7.5 x_18 * x_68 - 3.0 x_18 * x_69 + 5.5 x_18 * x_70 + 14.0 x_18 * x_71 - 1.5 x_18 * x_73 - 0.5 x_18 * x_75 - 17.0 x_19 * x_1 - 21.0 x_19 * x_2 - 12.0 x_19 * x_8 - 9.0 x_19 * x_11 + 16.5 x_19 * x_12 - 17.0 x_19 * x_14 - 20.0 x_19 * x_15 + 1.0 x_19 * x_16 + 4.5 x_19 * x_31 - 7.0 x_19 * x_33 + 23.5 x_19 * x_40 + 1.0 x_19 * x_44 + 22.5 x_19 * x_46 - 20.5 x_19 * x_48 + 0.5 x_19 * x_51 + 23.0 x_19 * x_55 - 10.0 x_19 * x_60 + 11.0 x_19 * x_61 - 0.5 x_19 * x_62 + 24.5 x_19 * x_65 - 0.5 x_19 * x_69 + 12.0 x_19 * x_72 - 9.5 x_19 * x_76 + 16.5 x_19 * x_78 - 2.5 x_20 * x_11 - 24.0 x_20 * x_12 + 8.5 x_20 * x_22 + 5.5 x_20 * x_25 + 14.0 x_20 * x_26 + 1.0 x_20 * x_29 + 6.5 x_20 * x_31 - 2.5 x_20 * x_34 - 1.0 x_20 * x_39 - 12.0 x_20 * x_42 + 16.5 x_20 * x_43 + 4.0 x_20 * x_47 + 3.0 x_20 * x_49 + 17.0 x_20 * x_52 + 7.0 x_20 * x_53 - 9.0 x_20 * x_55 - 14.5 x_20 * x_58 - 22.0 x_20 * x_66 + 16.0 x_20 * x_72 - 23.0 x_20 * x_75 + 20.5 x_21 * x_4 + 23.5 x_21 * x_7 - 14.5 x_21 * x_16 + 17.0 x_21 * x_27 + 15.5 x_21 * x_34 + 8.0 x_21 * x_35 + 16.5 x_21 * x_41 + 9.5 x_21 * x_43 + 10.0 x_21 * x_45 + 7.0 x_21 * x_53 + 11.5 x_21 * x_60 - 23.0 x_21 * x_61 + 11.0 x_21 * x_63 + 20.0 x_21 * x_67 - 14.5 x_21 * x_72 + 11.5 x_21 * x_75 - 21.5 x_22 * x_4 + 18.0 x_22 * x_7 + 21.0 x_22 * x_8 + 13.0 x_22 * x_10 - 8.0 x_22 * x_15 + 19.5 x_22 * x_16 + 8.5 x_22 * x_20 - 14.0 x_22 * x_24 - 13.5 x_22 * x_27 - 22.0 x_22 * x_31 + 1.0 x_22 * x_34 - 19.5 x_22 * x_36 + 19.5 x_22 * x_39 + 5.5 x_22 * x_41 + 24.0 x_22 * x_43 + 19.5 x_22 * x_45 + 16.0 x_22 * x_54 + 11.5 x_22 * x_55 - 18.0 x_22 * x_64 - 17.5 x_22 * x_65 - 13.5 x_22 * x_66 + 17.0 x_22 * x_69 - 24.5 x_22 * x_71 - 24.0 x_23 * x_1 - 15.0 x_23 * x_12 + 6.0 x_23 * x_14 - 15.0 x_23 * x_16 + 6.0 x_23 * x_30 + 0.5 x_23 * x_37 - 11.5 x_23 * x_48 - 20.0 x_23 * x_54 - 11.5 x_23 * x_57 + 23.0 x_23 * x_67 - 17.5 x_23 * x_76 + 17.5 x_23 * x_78 + 4.0 x_23 * x_80 - 5.5 x_24 * x_5 + 13.0 x_24 * x_6 + 9.5 x_24 * x_10 - 14.0 x_24 * x_22 - 12.0 x_24 * x_26 - 11.5 x_24 * x_36 + 9.0 x_24 * x_41 + 1.5 x_24 * x_42 + 6.0 x_24 * x_50 - 6.0 x_24 * x_52 + 15.5 x_24 * x_54 + 10.0 x_24 * x_70 + 16.0 x_24 * x_71 - 12.0 x_25 * x_5 + 14.0 x_25 * x_6 + 18.5 x_25 * x_9 + 5.5 x_25 * x_20 - 15.0 x_25 * x_33 - 12.5 x_25 * x_36 - 9.5 x_25 * x_38 - 7.5 x_25 * x_40 - 10.0 x_25 * x_47 - 8.0 x_25 * x_52 - 5.0 x_25 * x_60 + 2.5 x_25 * x_62 + 7.0 x_25 * x_64 - 15.0 x_25 * x_68 - 3.0 x_25 * x_72 + 21.0 x_25 * x_75 - 6.5 x_25 * x_78 - 20.0 x_25 * x_79 - 19.5 x_26 * x_6 - 9.5 x_26 * x_7 - 15.0 x_26 * x_10 + 22.0 x_26 * x_11 + 14.0 x_26 * x_20 - 12.0 x_26 * x_24 - 15.0 x_26 * x_37 - 18.0 x_26 * x_38 - 5.5 x_26 * x_43 - 13.5 x_26 * x_44 - 8.5 x_26 * x_45 - 15.0 x_26 * x_47 - 11.0 x_26 * x_51 - 13.5 x_26 * x_53 - 2.0 x_26 * x_56 - 10.0 x_26 * x_58 - 11.5 x_26 * x_64 - 23.0 x_26 * x_73 + 3.0 x_26 * x_76 + 6.0 x_26 * x_77 - 23.5 x_26 * x_79 - 3.5 x_27 * x_2 + 6.0 x_27 * x_5 + 17.5 x_27 * x_7 + 9.0 x_27 * x_8 + 9.0 x_27 * x_10 - 7.5 x_27 * x_13 - 10.5 x_27 * x_15 + 21.0 x_27 * x_16 - 2.5 x_27 * x_17 + 9.0 x_27 * x_18 + 17.0 x_27 * x_21 - 13.5 x_27 * x_22 - 2.0 x_27 * x_29 - 11.5 x_27 * x_38 - 12.0 x_27 * x_45 + 0.5 x_27 * x_46 - 24.0 x_27 * x_47 - 7.5 x_27 * x_49 - 9.0 x_27 * x_52 - 8.5 x_27 * x_59 - 16.0 x_27 * x_64 - 18.0 x_27 * x_65 - 20.5 x_27 * x_77 - 3.0 x_27 * x_79 - 9.0 x_28 * x_1 + 10.5 x_28 * x_3 - 12.5 x_28 * x_14 - 1.5 x_28 * x_16 - 23.0 x_28 * x_29 - 18.5 x_28 * x_39 - 7.5 x_28 * x_42 + 14.0 x_28 * x_44 + 3.0 x_28 * x_49 + 3.0 x_28 * x_60 + 20.0 x_28 * x_68 - 20.0 x_28 * x_78 + 15.0 x_29 * x_5 + 17.0 x_29 * x_6 + 16.5 x_29 * x_11 + 1.0 x_29 * x_20 - 2.0 x_29 * x_27 - 23.0 x_29 * x_28 + 5.5 x_29 * x_32 + 6.5 x_29 * x_37 - 22.0 x_29 * x_46 + 11.0 x_29 * x_52 - 17.0 x_29 * x_55 + 14.5 x_29 * x_56 + 3.5 x_29 * x_58 + 15.5 x_29 * x_64 + 12.5 x_29 * x_65 - 13.0 x_29 * x_66 - 5.5 x_29 * x_67 + 19.5 x_29 * x_74 + 7.0 x_29 * x_75 - 7.5 x_29 * x_77 + 24.0 x_29 * x_79 - 9.0 x_29 * x_80 - 15.0 x_30 * x_11 + 20.0 x_30 * x_13 - 5.5 x_30 * x_17 + 6.0 x_30 * x_23 + 22.5 x_30 * x_34 + 20.5 x_30 * x_36 + 2.5 x_30 * x_38 + 6.0 x_30 * x_39 - 7.0 x_30 * x_41 + 18.5 x_30 * x_43 + 6.0 x_30 * x_51 + 21.5 x_30 * x_54 + 7.0 x_30 * x_58 - 10.5 x_30 * x_63 + 4.5 x_30 * x_64 + 18.0 x_30 * x_66 - 23.5 x_30 * x_68 - 9.5 x_30 * x_70 - 18.0 x_31 * x_9 - 9.5 x_31 * x_10 - 20.0 x_31 * x_11 + 11.0 x_31 * x_16 + 4.5 x_31 * x_19 + 6.5 x_31 * x_20 - 22.0 x_31 * x_22 + 18.5 x_31 * x_31 + 4.5 x_31 * x_32 + 10.0 x_31 * x_33 - 13.5 x_31 * x_34 + 13.5 x_31 * x_36 + 3.5 x_31 * x_40 - 22.5 x_31 * x_41 + 11.5 x_31 * x_49 + 2.5 x_31 * x_56 + 17.0 x_31 * x_57 + 5.0 x_31 * x_61 - 2.5 x_31 * x_64 + 22.0 x_31 * x_66 + 17.0 x_31 * x_74 + 21.5 x_32 * x_1 + 22.5 x_32 * x_5 + 7.0 x_32 * x_6 - 11.5 x_32 * x_7 - 9.5 x_32 * x_15 + 5.5 x_32 * x_29 + 4.5 x_32 * x_31 - 0.5 x_32 * x_36 - 21.5 x_32 * x_40 - 15.5 x_32 * x_42 + 24.0 x_32 * x_44 - 8.5 x_32 * x_47 - 23.0 x_32 * x_52 - 9.0 x_32 * x_53 - 20.0 x_32 * x_59 - 7.5 x_32 * x_61 + 1.0 x_32 * x_62 - 19.0 x_32 * x_69 + 16.0 x_32 * x_73 + 22.0 x_32 * x_76 + 23.5 x_33 * x_1 - 16.5 x_33 * x_5 - 4.0 x_33 * x_6 + 20.0 x_33 * x_7 - 12.5 x_33 * x_8 + 23.5 x_33 * x_10 - 6.5 x_33 * x_14 - 5.0 x_33 * x_18 - 7.0 x_33 * x_19 - 15.0 x_33 * x_25 + 10.0 x_33 * x_31 - 7.5 x_33 * x_34 - 19.0 x_33 * x_36 - 17.0 x_33 * x_39 - 18.0 x_33 * x_41 - 19.0 x_33 * x_42 - 8.0 x_33 * x_51 + 3.5 x_33 * x_60 + 24.5 x_33 * x_63 + 6.5 x_33 * x_65 - 12.5 x_33 * x_66 + 24.0 x_33 * x_68 - 17.0 x_33 * x_70 + 10.5 x_33 * x_72 - 17.0 x_34 * x_1 + 2.0 x_34 * x_12 + 1.0 x_34 * x_18 - 2.5 x_34 * x_20 + 15.5 x_34 * x_21 + 1.0 x_34 * x_22 + 22.5 x_34 * x_30 - 13.5 x_34 * x_31 - 7.5 x_34 * x_33 + 6.5 x_34 * x_40 - 7.0 x_34 * x_41 - 11.5 x_34 * x_43 - 3.5 x_34 * x_44 + 8.5 x_34 * x_46 + 6.0 x_34 * x_47 + 7.0 x_34 * x_51 + 6.5 x_34 * x_53 + 19.5 x_34 * x_72 - 2.0 x_34 * x_76 + 7.5 x_35 * x_1 + 19.5 x_35 * x_5 - 14.0 x_35 * x_10 - 2.5 x_35 * x_12 - 9.5 x_35 * x_13 - 6.5 x_35 * x_16 - 16.5 x_35 * x_18 + 8.0 x_35 * x_21 + 16.0 x_35 * x_36 - 4.0 x_35 * x_46 + 19.5 x_35 * x_56 - 2.0 x_35 * x_63 - 5.5 x_35 * x_66 - 11.5 x_35 * x_68 - 19.5 x_35 * x_77 + 0.5 x_36 * x_1 - 10.0 x_36 * x_7 - 15.5 x_36 * x_8 + 15.0 x_36 * x_9 - 0.5 x_36 * x_12 - 23.5 x_36 * x_15 - 21.5 x_36 * x_16 - 23.5 x_36 * x_17 - 19.5 x_36 * x_22 - 11.5 x_36 * x_24 - 12.5 x_36 * x_25 + 20.5 x_36 * x_30 + 13.5 x_36 * x_31 - 0.5 x_36 * x_32 - 19.0 x_36 * x_33 + 16.0 x_36 * x_35 - 22.0 x_36 * x_41 + 17.0 x_36 * x_48 + 5.5 x_36 * x_50 + 22.5 x_36 * x_52 - 24.0 x_36 * x_61 - 14.0 x_36 * x_62 - 8.0 x_36 * x_67 + 16.0 x_36 * x_69 - 17.0 x_36 * x_76 + 10.5 x_36 * x_77 + 17.5 x_36 * x_79 - 12.5 x_36 * x_80 + 8.5 x_37 * x_4 - 22.0 x_37 * x_9 + 18.5 x_37 * x_10 + 3.5 x_37 * x_14 + 0.5 x_37 * x_23 - 15.0 x_37 * x_26 + 6.5 x_37 * x_29 - 10.0 x_37 * x_39 - 18.0 x_37 * x_40 + 18.5 x_37 * x_41 + 2.0 x_37 * x_44 - 4.0 x_37 * x_51 + 21.5 x_37 * x_52 + 9.0 x_37 * x_53 + 10.0 x_37 * x_55 - 16.0 x_37 * x_70 - 16.5 x_37 * x_72 - 14.0 x_37 * x_73 + 3.0 x_37 * x_77 + 6.0 x_37 * x_80 + 24.5 x_38 * x_13 + 23.5 x_38 * x_16 - 24.5 x_38 * x_17 + 0.5 x_38 * x_18 - 9.5 x_38 * x_25 - 18.0 x_38 * x_26 - 11.5 x_38 * x_27 + 2.5 x_38 * x_30 + 21.0 x_38 * x_42 - 1.0 x_38 * x_46 - 15.0 x_38 * x_54 + 18.0 x_38 * x_55 + 19.5 x_38 * x_57 - 1.5 x_38 * x_58 + 11.0 x_38 * x_61 - 23.5 x_38 * x_64 - 23.5 x_38 * x_72 + 8.0 x_39 * x_11 + 16.5 x_39 * x_16 - 1.0 x_39 * x_20 + 19.5 x_39 * x_22 - 18.5 x_39 * x_28 + 6.0 x_39 * x_30 - 17.0 x_39 * x_33 - 10.0 x_39 * x_37 - 16.0 x_39 * x_39 - 14.0 x_39 * x_53 - 23.5 x_39 * x_60 - 17.5 x_39 * x_62 - 0.5 x_39 * x_63 - 6.0 x_39 * x_65 - 22.5 x_39 * x_66 + 19.0 x_39 * x_68 + 14.5 x_39 * x_70 - 11.0 x_39 * x_75 - 18.5 x_40 * x_7 + 24.0 x_40 * x_8 - 6.5 x_40 * x_16 + 23.5 x_40 * x_19 - 7.5 x_40 * x_25 + 3.5 x_40 * x_31 - 21.5 x_40 * x_32 + 6.5 x_40 * x_34 - 18.0 x_40 * x_37 - 18.5 x_40 * x_41 - 5.5 x_40 * x_44 + 5.0 x_40 * x_50 - 20.5 x_40 * x_51 - 15.0 x_40 * x_52 - 2.0 x_40 * x_53 - 0.5 x_40 * x_54 - 5.0 x_40 * x_56 - 19.5 x_40 * x_65 + 12.5 x_40 * x_68 - 16.0 x_40 * x_69 - 15.0 x_40 * x_76 - 20.5 x_40 * x_77 + 3.5 x_40 * x_78 - 4.5 x_41 * x_10 + 7.5 x_41 * x_15 + 16.5 x_41 * x_21 + 5.5 x_41 * x_22 + 9.0 x_41 * x_24 - 7.0 x_41 * x_30 - 22.5 x_41 * x_31 - 18.0 x_41 * x_33 - 7.0 x_41 * x_34 - 22.0 x_41 * x_36 + 18.5 x_41 * x_37 - 18.5 x_41 * x_40 - 10.5 x_41 * x_41 + 3.5 x_41 * x_44 - 14.0 x_41 * x_49 + 23.5 x_41 * x_59 + 12.5 x_41 * x_67 + 2.0 x_41 * x_79 + 3.5 x_42 * x_1 + 20.5 x_42 * x_2 + 8.5 x_42 * x_3 - 8.0 x_42 * x_5 + 12.0 x_42 * x_7 + 19.5 x_42 * x_13 - 12.0 x_42 * x_20 + 1.5 x_42 * x_24 - 7.5 x_42 * x_28 - 15.5 x_42 * x_32 - 19.0 x_42 * x_33 + 21.0 x_42 * x_38 + 2.5 x_42 * x_49 + 10.0 x_42 * x_50 - 9.0 x_42 * x_55 + 5.5 x_42 * x_58 + 4.5 x_42 * x_63 - 12.0 x_42 * x_66 + 10.5 x_42 * x_68 - 21.0 x_42 * x_69 - 0.5 x_42 * x_76 + 7.5 x_42 * x_77 - 22.0 x_42 * x_80 + 11.5 x_43 * x_2 - 7.5 x_43 * x_6 + 22.5 x_43 * x_7 - 10.0 x_43 * x_8 - 8.0 x_43 * x_9 + 24.0 x_43 * x_11 + 12.0 x_43 * x_12 - 14.0 x_43 * x_14 + 16.5 x_43 * x_20 + 9.5 x_43 * x_21 + 24.0 x_43 * x_22 - 5.5 x_43 * x_26 + 18.5 x_43 * x_30 - 11.5 x_43 * x_34 - 1.5 x_43 * x_49 + 22.5 x_43 * x_57 + 18.5 x_43 * x_58 - 15.5 x_43 * x_62 + 21.0 x_43 * x_66 - 14.5 x_43 * x_73 + 14.5 x_43 * x_76 - 11.5 x_43 * x_77 + 10.0 x_43 * x_78 - 16.0 x_44 * x_7 - 16.5 x_44 * x_10 - 20.0 x_44 * x_14 + 12.0 x_44 * x_17 + 1.0 x_44 * x_19 - 13.5 x_44 * x_26 + 14.0 x_44 * x_28 + 24.0 x_44 * x_32 - 3.5 x_44 * x_34 + 2.0 x_44 * x_37 - 5.5 x_44 * x_40 + 3.5 x_44 * x_41 + 6.0 x_44 * x_54 + 4.0 x_44 * x_55 + 3.5 x_44 * x_61 - 14.0 x_44 * x_66 + 19.5 x_44 * x_70 - 11.0 x_44 * x_75 + 15.0 x_44 * x_76 - 8.0 x_44 * x_80 - 1.0 x_45 * x_9 + 1.5 x_45 * x_15 + 10.0 x_45 * x_21 + 19.5 x_45 * x_22 - 8.5 x_45 * x_26 - 12.0 x_45 * x_27 + 1.0 x_45 * x_51 - 0.5 x_45 * x_62 + 1.0 x_45 * x_69 + 2.0 x_45 * x_70 - 21.5 x_45 * x_74 + 21.5 x_45 * x_78 - 19.0 x_46 * x_11 - 14.0 x_46 * x_17 + 22.5 x_46 * x_19 + 0.5 x_46 * x_27 - 22.0 x_46 * x_29 + 8.5 x_46 * x_34 - 4.0 x_46 * x_35 - 1.0 x_46 * x_38 + 8.5 x_46 * x_46 - 22.0 x_46 * x_48 - 13.0 x_46 * x_50 + 16.5 x_46 * x_58 + 21.5 x_46 * x_60 - 13.0 x_46 * x_61 + 10.5 x_46 * x_71 - 24.0 x_46 * x_75 + 13.0 x_46 * x_78 - 11.0 x_47 * x_3 - 21.0 x_47 * x_5 + 21.0 x_47 * x_10 + 4.0 x_47 * x_13 - 2.0 x_47 * x_15 + 4.0 x_47 * x_20 - 10.0 x_47 * x_25 - 15.0 x_47 * x_26 - 24.0 x_47 * x_27 - 8.5 x_47 * x_32 + 6.0 x_47 * x_34 + 3.5 x_47 * x_51 - 4.0 x_47 * x_56 - 23.0 x_47 * x_58 - 9.0 x_47 * x_59 + 23.5 x_47 * x_68 + 18.5 x_47 * x_71 - 10.5 x_47 * x_74 + 14.5 x_47 * x_75 + 21.5 x_47 * x_77 - 6.5 x_48 * x_1 - 19.5 x_48 * x_4 + 12.0 x_48 * x_5 - 15.5 x_48 * x_6 + 20.5 x_48 * x_9 + 5.5 x_48 * x_11 - 16.5 x_48 * x_12 + 15.0 x_48 * x_14 + 19.0 x_48 * x_18 - 20.5 x_48 * x_19 - 11.5 x_48 * x_23 + 17.0 x_48 * x_36 - 22.0 x_48 * x_46 - 6.5 x_48 * x_59 + 12.5 x_48 * x_60 - 8.0 x_48 * x_69 + 7.0 x_48 * x_73 + 15.0 x_48 * x_74 - 22.0 x_48 * x_76 - 6.0 x_49 * x_2 + 2.5 x_49 * x_18 + 3.0 x_49 * x_20 - 7.5 x_49 * x_27 + 3.0 x_49 * x_28 + 11.5 x_49 * x_31 - 14.0 x_49 * x_41 + 2.5 x_49 * x_42 - 1.5 x_49 * x_43 - 16.5 x_49 * x_50 + 18.5 x_49 * x_62 - 0.5 x_49 * x_70 + 12.0 x_49 * x_78 - 7.5 x_49 * x_79 + 24.0 x_49 * x_80 + 24.5 x_50 * x_1 - 9.5 x_50 * x_2 - 2.0 x_50 * x_5 - 8.5 x_50 * x_6 - 2.5 x_50 * x_7 + 6.0 x_50 * x_8 + 20.0 x_50 * x_16 - 7.5 x_50 * x_18 + 6.0 x_50 * x_24 + 5.5 x_50 * x_36 + 5.0 x_50 * x_40 + 10.0 x_50 * x_42 - 13.0 x_50 * x_46 - 16.5 x_50 * x_49 - 20.5 x_50 * x_54 - 24.5 x_50 * x_59 + 24.0 x_50 * x_64 + 5.0 x_50 * x_65 - 4.5 x_50 * x_67 + 4.5 x_50 * x_68 - 14.0 x_50 * x_73 + 20.0 x_50 * x_76 + 10.0 x_50 * x_79 + 19.5 x_51 * x_2 - 1.5 x_51 * x_4 - 1.5 x_51 * x_5 - 4.0 x_51 * x_8 + 21.5 x_51 * x_10 - 13.0 x_51 * x_11 - 13.0 x_51 * x_17 + 9.5 x_51 * x_18 + 0.5 x_51 * x_19 - 11.0 x_51 * x_26 + 6.0 x_51 * x_30 - 8.0 x_51 * x_33 + 7.0 x_51 * x_34 - 4.0 x_51 * x_37 - 20.5 x_51 * x_40 + 1.0 x_51 * x_45 + 3.5 x_51 * x_47 - 15.5 x_51 * x_52 - 19.5 x_51 * x_56 + 24.0 x_51 * x_57 - 22.0 x_51 * x_58 - 16.5 x_51 * x_62 - 21.5 x_51 * x_67 + 15.5 x_51 * x_70 - 14.0 x_51 * x_73 + 11.0 x_51 * x_75 - 19.5 x_52 * x_1 + 8.5 x_52 * x_5 - 12.5 x_52 * x_9 + 15.0 x_52 * x_14 + 17.0 x_52 * x_20 - 6.0 x_52 * x_24 - 8.0 x_52 * x_25 - 9.0 x_52 * x_27 + 11.0 x_52 * x_29 - 23.0 x_52 * x_32 + 22.5 x_52 * x_36 + 21.5 x_52 * x_37 - 15.0 x_52 * x_40 - 15.5 x_52 * x_51 + 21.0 x_52 * x_58 - 5.0 x_52 * x_72 - 12.0 x_52 * x_73 + 23.5 x_52 * x_77 - 18.0 x_53 * x_1 - 13.5 x_53 * x_3 + 7.0 x_53 * x_4 - 8.0 x_53 * x_7 + 18.5 x_53 * x_11 + 23.0 x_53 * x_17 + 7.0 x_53 * x_20 + 7.0 x_53 * x_21 - 13.5 x_53 * x_26 - 9.0 x_53 * x_32 + 6.5 x_53 * x_34 + 9.0 x_53 * x_37 - 14.0 x_53 * x_39 - 2.0 x_53 * x_40 + 7.5 x_53 * x_54 + 21.5 x_53 * x_57 + 2.5 x_53 * x_59 + 2.5 x_53 * x_64 + 16.0 x_53 * x_65 + 1.0 x_53 * x_67 + 2.5 x_53 * x_70 - 10.0 x_53 * x_71 - 7.0 x_54 * x_4 + 19.0 x_54 * x_5 - 21.5 x_54 * x_6 - 21.0 x_54 * x_9 - 24.0 x_54 * x_13 - 4.0 x_54 * x_17 + 16.0 x_54 * x_22 - 20.0 x_54 * x_23 + 15.5 x_54 * x_24 + 21.5 x_54 * x_30 - 15.0 x_54 * x_38 - 0.5 x_54 * x_40 + 6.0 x_54 * x_44 - 20.5 x_54 * x_50 + 7.5 x_54 * x_53 - 4.0 x_54 * x_55 + 7.5 x_54 * x_56 + 20.0 x_54 * x_58 - 2.0 x_54 * x_60 + 22.5 x_54 * x_64 + 23.0 x_54 * x_69 - 1.0 x_54 * x_72 - 18.5 x_54 * x_80 - 6.5 x_55 * x_3 - 22.5 x_55 * x_6 - 9.0 x_55 * x_10 - 17.0 x_55 * x_11 + 8.5 x_55 * x_17 + 23.0 x_55 * x_19 - 9.0 x_55 * x_20 + 11.5 x_55 * x_22 - 17.0 x_55 * x_29 + 10.0 x_55 * x_37 + 18.0 x_55 * x_38 - 9.0 x_55 * x_42 + 4.0 x_55 * x_44 - 4.0 x_55 * x_54 + 20.5 x_55 * x_55 - 4.0 x_55 * x_63 - 2.0 x_55 * x_64 - 16.5 x_55 * x_69 + 19.5 x_55 * x_79 - 16.5 x_56 * x_4 + 4.0 x_56 * x_10 - 1.0 x_56 * x_11 - 3.5 x_56 * x_13 + 24.0 x_56 * x_14 - 2.0 x_56 * x_26 + 14.5 x_56 * x_29 + 2.5 x_56 * x_31 + 19.5 x_56 * x_35 - 5.0 x_56 * x_40 - 4.0 x_56 * x_47 - 19.5 x_56 * x_51 + 7.5 x_56 * x_54 + 3.0 x_56 * x_59 - 14.5 x_56 * x_62 + 10.0 x_56 * x_63 - 6.5 x_56 * x_68 + 8.0 x_56 * x_72 + 11.0 x_56 * x_74 - 2.0 x_57 * x_4 - 20.5 x_57 * x_5 - 7.5 x_57 * x_6 - 22.0 x_57 * x_9 + 24.0 x_57 * x_10 - 24.5 x_57 * x_14 + 22.0 x_57 * x_16 - 11.5 x_57 * x_23 + 17.0 x_57 * x_31 + 19.5 x_57 * x_38 + 22.5 x_57 * x_43 + 24.0 x_57 * x_51 + 21.5 x_57 * x_53 + 3.5 x_57 * x_57 - 17.0 x_57 * x_61 + 14.5 x_57 * x_72 + 1.5 x_57 * x_73 + 16.0 x_57 * x_76 + 8.5 x_57 * x_78 + 22.0 x_58 * x_1 - 10.0 x_58 * x_5 + 4.5 x_58 * x_10 - 7.5 x_58 * x_11 - 14.5 x_58 * x_20 - 10.0 x_58 * x_26 + 3.5 x_58 * x_29 + 7.0 x_58 * x_30 - 1.5 x_58 * x_38 + 5.5 x_58 * x_42 + 18.5 x_58 * x_43 + 16.5 x_58 * x_46 - 23.0 x_58 * x_47 - 22.0 x_58 * x_51 + 21.0 x_58 * x_52 + 20.0 x_58 * x_54 - 2.0 x_58 * x_59 - 11.5 x_58 * x_67 - 1.0 x_58 * x_68 - 11.5 x_58 * x_71 - 22.5 x_58 * x_80 - 22.0 x_59 * x_6 - 7.5 x_59 * x_13 + 21.0 x_59 * x_17 - 8.5 x_59 * x_27 - 20.0 x_59 * x_32 + 23.5 x_59 * x_41 - 9.0 x_59 * x_47 - 6.5 x_59 * x_48 - 24.5 x_59 * x_50 + 2.5 x_59 * x_53 + 3.0 x_59 * x_56 - 2.0 x_59 * x_58 - 16.5 x_59 * x_59 - 4.0 x_59 * x_61 + 13.5 x_59 * x_65 + 2.5 x_59 * x_67 + 4.0 x_59 * x_74 - 4.0 x_59 * x_77 + 13.5 x_59 * x_79 + 17.5 x_59 * x_80 + 10.5 x_60 * x_2 - 16.0 x_60 * x_3 + 23.5 x_60 * x_8 - 2.5 x_60 * x_12 - 1.0 x_60 * x_14 - 10.0 x_60 * x_19 + 11.5 x_60 * x_21 - 5.0 x_60 * x_25 + 3.0 x_60 * x_28 + 3.5 x_60 * x_33 - 23.5 x_60 * x_39 + 21.5 x_60 * x_46 + 12.5 x_60 * x_48 - 2.0 x_60 * x_54 + 6.0 x_60 * x_62 + 9.5 x_60 * x_63 + 18.5 x_60 * x_67 - 10.5 x_60 * x_75 - 19.5 x_60 * x_77 + 8.0 x_61 * x_3 + 11.0 x_61 * x_4 - 17.0 x_61 * x_5 - 13.5 x_61 * x_7 + 11.5 x_61 * x_8 + 19.5 x_61 * x_9 - 24.0 x_61 * x_12 + 15.5 x_61 * x_16 + 11.0 x_61 * x_19 - 23.0 x_61 * x_21 + 5.0 x_61 * x_31 - 7.5 x_61 * x_32 - 24.0 x_61 * x_36 + 11.0 x_61 * x_38 + 3.5 x_61 * x_44 - 13.0 x_61 * x_46 - 17.0 x_61 * x_57 - 4.0 x_61 * x_59 + 12.0 x_61 * x_73 - 14.5 x_61 * x_75 + 18.5 x_61 * x_77 - 12.0 x_62 * x_2 - 1.5 x_62 * x_3 - 20.0 x_62 * x_6 - 3.0 x_62 * x_7 + 22.5 x_62 * x_8 + 17.0 x_62 * x_10 + 8.0 x_62 * x_11 - 13.5 x_62 * x_13 - 17.5 x_62 * x_15 - 0.5 x_62 * x_19 + 2.5 x_62 * x_25 + 1.0 x_62 * x_32 - 14.0 x_62 * x_36 - 17.5 x_62 * x_39 - 15.5 x_62 * x_43 - 0.5 x_62 * x_45 + 18.5 x_62 * x_49 - 16.5 x_62 * x_51 - 14.5 x_62 * x_56 + 6.0 x_62 * x_60 + 10.5 x_62 * x_65 - 9.0 x_62 * x_68 + 24.0 x_62 * x_75 + 22.0 x_63 * x_1 - 9.0 x_63 * x_2 + 0.5 x_63 * x_5 - 17.5 x_63 * x_6 - 9.5 x_63 * x_11 + 21.0 x_63 * x_12 - 14.0 x_63 * x_14 - 22.0 x_63 * x_15 + 11.0 x_63 * x_21 - 10.5 x_63 * x_30 + 24.5 x_63 * x_33 - 2.0 x_63 * x_35 - 0.5 x_63 * x_39 + 4.5 x_63 * x_42 - 4.0 x_63 * x_55 + 10.0 x_63 * x_56 + 9.5 x_63 * x_60 - 24.5 x_63 * x_65 - 4.5 x_63 * x_69 + 19.5 x_63 * x_72 - 8.5 x_63 * x_74 - 9.5 x_63 * x_77 + 11.5 x_64 * x_3 + 9.0 x_64 * x_6 - 22.0 x_64 * x_16 - 18.0 x_64 * x_22 + 7.0 x_64 * x_25 - 11.5 x_64 * x_26 - 16.0 x_64 * x_27 + 15.5 x_64 * x_29 + 4.5 x_64 * x_30 - 2.5 x_64 * x_31 - 23.5 x_64 * x_38 + 24.0 x_64 * x_50 + 2.5 x_64 * x_53 + 22.5 x_64 * x_54 - 2.0 x_64 * x_55 - 22.0 x_64 * x_67 - 16.5 x_64 * x_70 - 8.5 x_64 * x_73 + 22.0 x_64 * x_75 - 9.0 x_64 * x_79 + 12.5 x_64 * x_80 + 24.5 x_65 * x_3 - 18.5 x_65 * x_6 + 7.0 x_65 * x_8 - 11.0 x_65 * x_10 - 23.0 x_65 * x_11 - 9.5 x_65 * x_13 + 24.5 x_65 * x_19 - 17.5 x_65 * x_22 - 18.0 x_65 * x_27 + 12.5 x_65 * x_29 + 6.5 x_65 * x_33 - 6.0 x_65 * x_39 - 19.5 x_65 * x_40 + 5.0 x_65 * x_50 + 16.0 x_65 * x_53 + 13.5 x_65 * x_59 + 10.5 x_65 * x_62 - 24.5 x_65 * x_63 - 8.0 x_65 * x_67 + 7.0 x_65 * x_70 - 4.5 x_65 * x_75 + 19.5 x_65 * x_79 - 7.0 x_66 * x_5 - 5.5 x_66 * x_9 - 16.5 x_66 * x_10 - 8.5 x_66 * x_15 - 22.0 x_66 * x_20 - 13.5 x_66 * x_22 - 13.0 x_66 * x_29 + 18.0 x_66 * x_30 + 22.0 x_66 * x_31 - 12.5 x_66 * x_33 - 5.5 x_66 * x_35 - 22.5 x_66 * x_39 - 12.0 x_66 * x_42 + 21.0 x_66 * x_43 - 14.0 x_66 * x_44 + 13.0 x_66 * x_68 - 4.5 x_66 * x_69 + 16.0 x_66 * x_74 - 2.5 x_66 * x_77 + 10.5 x_66 * x_79 - 12.5 x_67 * x_1 - 17.5 x_67 * x_3 + 24.5 x_67 * x_7 + 21.5 x_67 * x_10 + 19.0 x_67 * x_15 + 20.0 x_67 * x_21 + 23.0 x_67 * x_23 - 5.5 x_67 * x_29 - 8.0 x_67 * x_36 + 12.5 x_67 * x_41 - 4.5 x_67 * x_50 - 21.5 x_67 * x_51 + 1.0 x_67 * x_53 - 11.5 x_67 * x_58 + 2.5 x_67 * x_59 + 18.5 x_67 * x_60 - 22.0 x_67 * x_64 - 8.0 x_67 * x_65 - 22.0 x_67 * x_67 - 2.5 x_67 * x_74 + 23.0 x_67 * x_77 - 9.0 x_68 * x_2 - 6.0 x_68 * x_3 - 17.5 x_68 * x_7 - 16.0 x_68 * x_9 - 14.0 x_68 * x_13 + 21.0 x_68 * x_15 - 16.0 x_68 * x_16 - 7.5 x_68 * x_18 - 15.0 x_68 * x_25 + 20.0 x_68 * x_28 - 23.5 x_68 * x_30 + 24.0 x_68 * x_33 - 11.5 x_68 * x_35 + 19.0 x_68 * x_39 + 12.5 x_68 * x_40 + 10.5 x_68 * x_42 + 23.5 x_68 * x_47 + 4.5 x_68 * x_50 - 6.5 x_68 * x_56 - 1.0 x_68 * x_58 - 9.0 x_68 * x_62 + 13.0 x_68 * x_66 + 22.5 x_68 * x_68 + 1.0 x_68 * x_69 - 21.5 x_69 * x_4 + 15.0 x_69 * x_8 + 15.5 x_69 * x_12 - 3.0 x_69 * x_14 + 20.5 x_69 * x_16 - 3.0 x_69 * x_18 - 0.5 x_69 * x_19 + 17.0 x_69 * x_22 - 19.0 x_69 * x_32 + 16.0 x_69 * x_36 - 16.0 x_69 * x_40 - 21.0 x_69 * x_42 + 1.0 x_69 * x_45 - 8.0 x_69 * x_48 + 23.0 x_69 * x_54 - 16.5 x_69 * x_55 - 4.5 x_69 * x_63 - 4.5 x_69 * x_66 + 1.0 x_69 * x_68 + 21.0 x_69 * x_77 - 11.0 x_70 * x_4 - 9.0 x_70 * x_9 - 2.0 x_70 * x_13 - 17.5 x_70 * x_14 + 2.0 x_70 * x_16 + 5.5 x_70 * x_18 + 10.0 x_70 * x_24 - 9.5 x_70 * x_30 - 17.0 x_70 * x_33 - 16.0 x_70 * x_37 + 14.5 x_70 * x_39 + 19.5 x_70 * x_44 + 2.0 x_70 * x_45 - 0.5 x_70 * x_49 + 15.5 x_70 * x_51 + 2.5 x_70 * x_53 - 16.5 x_70 * x_64 + 7.0 x_70 * x_65 - 10.0 x_70 * x_71 - 19.5 x_70 * x_75 - 12.0 x_70 * x_76 - 1.0 x_71 * x_13 + 22.0 x_71 * x_17 + 14.0 x_71 * x_18 - 24.5 x_71 * x_22 + 16.0 x_71 * x_24 + 10.5 x_71 * x_46 + 18.5 x_71 * x_47 - 10.0 x_71 * x_53 - 11.5 x_71 * x_58 - 10.0 x_71 * x_70 - 0.5 x_71 * x_71 + 11.5 x_71 * x_73 - 3.0 x_71 * x_77 + 7.5 x_71 * x_80 + 15.5 x_72 * x_6 + 11.5 x_72 * x_7 + 5.0 x_72 * x_15 + 12.0 x_72 * x_19 + 16.0 x_72 * x_20 - 14.5 x_72 * x_21 - 3.0 x_72 * x_25 + 10.5 x_72 * x_33 + 19.5 x_72 * x_34 - 16.5 x_72 * x_37 - 23.5 x_72 * x_38 - 5.0 x_72 * x_52 - 1.0 x_72 * x_54 + 8.0 x_72 * x_56 + 14.5 x_72 * x_57 + 19.5 x_72 * x_63 - 16.0 x_72 * x_73 + 19.5 x_72 * x_77 + 4.0 x_72 * x_78 + 5.5 x_72 * x_79 + 19.5 x_73 * x_15 - 1.5 x_73 * x_18 - 23.0 x_73 * x_26 + 16.0 x_73 * x_32 - 14.0 x_73 * x_37 - 14.5 x_73 * x_43 + 7.0 x_73 * x_48 - 14.0 x_73 * x_50 - 14.0 x_73 * x_51 - 12.0 x_73 * x_52 + 1.5 x_73 * x_57 + 12.0 x_73 * x_61 - 8.5 x_73 * x_64 + 11.5 x_73 * x_71 - 16.0 x_73 * x_72 + 11.0 x_74 * x_2 - 18.0 x_74 * x_12 + 19.5 x_74 * x_29 + 17.0 x_74 * x_31 - 21.5 x_74 * x_45 - 10.5 x_74 * x_47 + 15.0 x_74 * x_48 + 11.0 x_74 * x_56 + 4.0 x_74 * x_59 - 8.5 x_74 * x_63 + 16.0 x_74 * x_66 - 2.5 x_74 * x_67 - 1.0 x_74 * x_79 + 9.0 x_74 * x_80 - 20.0 x_75 * x_3 + 12.0 x_75 * x_4 - 12.0 x_75 * x_6 + 17.0 x_75 * x_8 - 3.5 x_75 * x_9 - 22.0 x_75 * x_17 - 0.5 x_75 * x_18 - 23.0 x_75 * x_20 + 11.5 x_75 * x_21 + 21.0 x_75 * x_25 + 7.0 x_75 * x_29 - 11.0 x_75 * x_39 - 11.0 x_75 * x_44 - 24.0 x_75 * x_46 + 14.5 x_75 * x_47 + 11.0 x_75 * x_51 - 10.5 x_75 * x_60 - 14.5 x_75 * x_61 + 24.0 x_75 * x_62 + 22.0 x_75 * x_64 - 4.5 x_75 * x_65 - 19.5 x_75 * x_70 - 10.0 x_76 * x_1 + 2.5 x_76 * x_3 - 5.5 x_76 * x_4 - 9.0 x_76 * x_6 - 20.5 x_76 * x_7 - 20.5 x_76 * x_17 - 9.5 x_76 * x_19 - 17.5 x_76 * x_23 + 3.0 x_76 * x_26 + 22.0 x_76 * x_32 - 2.0 x_76 * x_34 - 17.0 x_76 * x_36 - 15.0 x_76 * x_40 - 0.5 x_76 * x_42 + 14.5 x_76 * x_43 + 15.0 x_76 * x_44 - 22.0 x_76 * x_48 + 20.0 x_76 * x_50 + 16.0 x_76 * x_57 - 12.0 x_76 * x_70 - 14.0 x_76 * x_76 - 1.5 x_76 * x_78 + 6.5 x_77 * x_2 + 24.5 x_77 * x_11 - 9.0 x_77 * x_14 + 0.5 x_77 * x_15 + 6.0 x_77 * x_26 - 20.5 x_77 * x_27 - 7.5 x_77 * x_29 - 19.5 x_77 * x_35 + 10.5 x_77 * x_36 + 3.0 x_77 * x_37 - 20.5 x_77 * x_40 + 7.5 x_77 * x_42 - 11.5 x_77 * x_43 + 21.5 x_77 * x_47 + 23.5 x_77 * x_52 - 4.0 x_77 * x_59 - 19.5 x_77 * x_60 + 18.5 x_77 * x_61 - 9.5 x_77 * x_63 - 2.5 x_77 * x_66 + 23.0 x_77 * x_67 + 21.0 x_77 * x_69 - 3.0 x_77 * x_71 + 19.5 x_77 * x_72 - 7.5 x_77 * x_78 - 5.0 x_78 * x_5 - 17.5 x_78 * x_9 + 4.0 x_78 * x_15 + 8.5 x_78 * x_17 + 16.5 x_78 * x_19 + 17.5 x_78 * x_23 - 6.5 x_78 * x_25 - 20.0 x_78 * x_28 + 3.5 x_78 * x_40 + 10.0 x_78 * x_43 + 21.5 x_78 * x_45 + 13.0 x_78 * x_46 + 12.0 x_78 * x_49 + 8.5 x_78 * x_57 + 4.0 x_78 * x_72 - 1.5 x_78 * x_76 - 7.5 x_78 * x_77 + 17.5 x_78 * x_80 - 9.0 x_79 * x_10 + 16.0 x_79 * x_15 + 22.5 x_79 * x_16 - 20.0 x_79 * x_25 - 23.5 x_79 * x_26 - 3.0 x_79 * x_27 + 24.0 x_79 * x_29 + 17.5 x_79 * x_36 + 2.0 x_79 * x_41 - 7.5 x_79 * x_49 + 10.0 x_79 * x_50 + 19.5 x_79 * x_55 + 13.5 x_79 * x_59 - 9.0 x_79 * x_64 + 19.5 x_79 * x_65 + 10.5 x_79 * x_66 + 5.5 x_79 * x_72 - 1.0 x_79 * x_74 - 0.5 x_80 * x_3 - 6.5 x_80 * x_4 + 16.0 x_80 * x_6 - 2.0 x_80 * x_11 + 4.0 x_80 * x_23 - 9.0 x_80 * x_29 - 12.5 x_80 * x_36 + 6.0 x_80 * x_37 - 22.0 x_80 * x_42 - 8.0 x_80 * x_44 + 24.0 x_80 * x_49 - 18.5 x_80 * x_54 - 22.5 x_80 * x_58 + 17.5 x_80 * x_59 + 12.5 x_80 * x_64 + 7.5 x_80 * x_71 + 9.0 x_80 * x_74 + 17.5 x_80 * x_78 ] + 0.0 x_1 - 40.0 x_2 + 0.0 x_3 - 26.0 x_4 + 0.0 x_5 - 24.0 x_6 + 2.0 x_7 + 0.0 x_8 + 1.0 x_9 + 0.0 x_10 - 38.0 x_11 + 0.0 x_12 + 35.0 x_13 + 0.0 x_14 - 4.0 x_15 + 0.0 x_16 - 6.0 x_17 + 0.0 x_18 + 0.0 x_19 + 0.0 x_20 - 44.0 x_21 - 37.0 x_22 + 0.0 x_23 + 0.0 x_24 - 22.0 x_25 + 39.0 x_26 + 0.0 x_27 + 0.0 x_28 + 0.0 x_29 + 0.0 x_30 + 0.0 x_31 - 4.0 x_32 + 21.0 x_33 + 27.0 x_34 + 0.0 x_35 + 0.0 x_36 + 0.0 x_37 + 45.0 x_38 + 0.0 x_39 + 0.0 x_40 + 0.0 x_41 + 0.0 x_42 + 0.0 x_43 + 0.0 x_44 + 0.0 x_45 - 27.0 x_46 + 0.0 x_47 + 0.0 x_48 + 0.0 x_49 + 0.0 x_50 + 0.0 x_51 + 0.0 x_52 - 6.0 x_53 + 0.0 x_54 + 0.0 x_55 + 0.0 x_56 + 0.0 x_57 - 5.0 x_58 + 0.0 x_59 + 0.0 x_60 + 0.0 x_61 + 0.0 x_62 + 0.0 x_63 + 0.0 x_64 + 0.0 x_65 + 0.0 x_66 - 16.0 x_67 + 0.0 x_68 + 0.0 x_69 + 0.0 x_70 + 0.0 x_71 - 31.0 x_72 + 0.0 x_73 + 0.0 x_74 + 0.0 x_75 + 2.0 x_76 + 0.0 x_77 + 0.0 x_78 + 0.0 x_79 + 0.0 x_80

Subject To
 e2: [  x_1 * x_32 ] = 0.0
 e3: [  x_2 * x_13 ] = 0.0
 e4: [  x_2 * x_42 ] = 0.0
 e5: [  x_3 * x_4 ] = 0.0
 e6: [  x_3 * x_6 ] = 0.0
 e7: [  x_4 * x_54 ] = 0.0
 e8: [  x_4 * x_61 ] = 0.0
 e9: [  x_5 * x_16 ] = 0.0
 e10: [  x_6 * x_3 ] = 0.0
 e11: [  x_6 * x_25 ] = 0.0
 e12: [  x_6 * x_54 ] = 0.0
 e13: [  x_6 * x_59 ] = 0.0
 e14: [  x_7 * x_8 ] = 0.0
 e15: [  x_8 * x_10 ] = 0.0
 e16: [  x_8 * x_40 ] = 0.0
 e17: [  x_8 * x_43 ] = 0.0
 e18: [  x_9 * x_25 ] = 0.0
 e19: [  x_9 * x_37 ] = 0.0
 e20: [  x_9 * x_48 ] = 0.0
 e21: [  x_9 * x_66 ] = 0.0
 e22: [  x_9 * x_70 ] = 0.0
 e23: [  x_10 * x_17 ] = 0.0
 e24: [  x_10 * x_47 ] = 0.0
 e25: [  x_11 * x_30 ] = 0.0
 e26: [  x_11 * x_43 ] = 0.0
 e27: [  x_11 * x_46 ] = 0.0
 e28: [  x_12 * x_20 ] = 0.0
 e29: [  x_12 * x_34 ] = 0.0
 e30: [  x_12 * x_43 ] = 0.0
 e31: [  x_12 * x_61 ] = 0.0
 e32: [  x_12 * x_63 ] = 0.0
 e33: [  x_13 * x_42 ] = 0.0
 e34: [  x_14 * x_9 ] = 0.0
 e35: [  x_15 * x_2 ] = 0.0
 e36: [  x_15 * x_15 ] = 0.0
 e37: [  x_15 * x_45 ] = 0.0
 e38: [  x_15 * x_63 ] = 0.0
 e39: [  x_16 * x_16 ] = 0.0
 e40: [  x_16 * x_36 ] = 0.0
 e41: [  x_16 * x_39 ] = 0.0
 e42: [  x_16 * x_57 ] = 0.0
 e43: [  x_18 * x_33 ] = 0.0
 e44: [  x_18 * x_34 ] = 0.0
 e45: [  x_18 * x_35 ] = 0.0
 e46: [  x_18 * x_49 ] = 0.0
 e47: [  x_18 * x_51 ] = 0.0
 e48: [  x_19 * x_1 ] = 0.0
 e49: [  x_19 * x_14 ] = 0.0
 e50: [  x_19 * x_15 ] = 0.0
 e51: [  x_19 * x_31 ] = 0.0
 e52: [  x_19 * x_44 ] = 0.0
 e53: [  x_19 * x_51 ] = 0.0
 e54: [  x_19 * x_78 ] = 0.0
 e55: [  x_20 * x_31 ] = 0.0
 e56: [  x_20 * x_42 ] = 0.0
 e57: [  x_20 * x_43 ] = 0.0
 e58: [  x_20 * x_52 ] = 0.0
 e59: [  x_20 * x_53 ] = 0.0
 e60: [  x_22 * x_7 ] = 0.0
 e61: [  x_22 * x_27 ] = 0.0
 e62: [  x_22 * x_54 ] = 0.0
 e63: [  x_23 * x_1 ] = 0.0
 e64: [  x_23 * x_12 ] = 0.0
 e65: [  x_23 * x_30 ] = 0.0
 e66: [  x_23 * x_48 ] = 0.0
 e67: [  x_23 * x_54 ] = 0.0
 e68: [  x_23 * x_76 ] = 0.0
 e69: [  x_24 * x_22 ] = 0.0
 e70: [  x_24 * x_54 ] = 0.0
 e71: [  x_24 * x_70 ] = 0.0
 e72: [  x_25 * x_60 ] = 0.0
 e73: [  x_26 * x_10 ] = 0.0
 e74: [  x_26 * x_51 ] = 0.0
 e75: [  x_26 * x_79 ] = 0.0
 e76: [  x_27 * x_15 ] = 0.0
 e77: [  x_27 * x_21 ] = 0.0
 e78: [  x_27 * x_46 ] = 0.0
 e79: [  x_27 * x_47 ] = 0.0
 e80: [  x_28 * x_1 ] = 0.0
 e81: [  x_28 * x_29 ] = 0.0
 e82: [  x_29 * x_20 ] = 0.0
 e83: [  x_29 * x_75 ] = 0.0
 e84: [  x_30 * x_43 ] = 0.0
 e85: [  x_30 * x_70 ] = 0.0
 e86: [  x_31 * x_9 ] = 0.0
 e87: [  x_31 * x_34 ] = 0.0
 e88: [  x_31 * x_40 ] = 0.0
 e89: [  x_32 * x_62 ] = 0.0
 e90: [  x_32 * x_73 ] = 0.0
 e91: [  x_33 * x_60 ] = 0.0
 e92: [  x_33 * x_68 ] = 0.0
 e93: [  x_33 * x_72 ] = 0.0
 e94: [  x_34 * x_21 ] = 0.0
 e95: [  x_35 * x_66 ] = 0.0
 e96: [  x_35 * x_77 ] = 0.0
 e97: [  x_36 * x_1 ] = 0.0
 e98: [  x_36 * x_12 ] = 0.0
 e99: [  x_36 * x_31 ] = 0.0
 e100: [  x_36 * x_67 ] = 0.0
 e101: [  x_37 * x_9 ] = 0.0
 e102: [  x_37 * x_39 ] = 0.0
 e103: [  x_37 * x_55 ] = 0.0
 e104: [  x_37 * x_70 ] = 0.0
 e105: [  x_39 * x_11 ] = 0.0
 e106: [  x_39 * x_33 ] = 0.0
 e107: [  x_40 * x_32 ] = 0.0
 e108: [  x_40 * x_65 ] = 0.0
 e109: [  x_41 * x_37 ] = 0.0
 e110: [  x_41 * x_67 ] = 0.0
 e111: [  x_42 * x_1 ] = 0.0
 e112: [  x_42 * x_7 ] = 0.0
 e113: [  x_42 * x_20 ] = 0.0
 e114: [  x_42 * x_55 ] = 0.0
 e115: [  x_43 * x_7 ] = 0.0
 e116: [  x_44 * x_7 ] = 0.0
 e117: [  x_45 * x_27 ] = 0.0
 e118: [  x_46 * x_29 ] = 0.0
 e119: [  x_46 * x_48 ] = 0.0
 e120: [  x_46 * x_50 ] = 0.0
 e121: [  x_46 * x_75 ] = 0.0
 e122: [  x_47 * x_34 ] = 0.0
 e123: [  x_48 * x_4 ] = 0.0
 e124: [  x_48 * x_19 ] = 0.0
 e125: [  x_49 * x_27 ] = 0.0
 e126: [  x_49 * x_41 ] = 0.0
 e127: [  x_50 * x_18 ] = 0.0
 e128: [  x_50 * x_67 ] = 0.0
 e129: [  x_50 * x_79 ] = 0.0
 e130: [  x_51 * x_10 ] = 0.0
 e131: [  x_51 * x_17 ] = 0.0
 e132: [  x_51 * x_34 ] = 0.0
 e133: [  x_51 * x_73 ] = 0.0
 e134: [  x_52 * x_14 ] = 0.0
 e135: [  x_52 * x_27 ] = 0.0
 e136: [  x_53 * x_20 ] = 0.0
 e137: [  x_53 * x_26 ] = 0.0
 e138: [  x_53 * x_37 ] = 0.0
 e139: [  x_53 * x_59 ] = 0.0
 e140: [  x_53 * x_71 ] = 0.0
 e141: [  x_54 * x_6 ] = 0.0
 e142: [  x_54 * x_13 ] = 0.0
 e143: [  x_54 * x_23 ] = 0.0
 e144: [  x_54 * x_58 ] = 0.0
 e145: [  x_55 * x_10 ] = 0.0
 e146: [  x_55 * x_69 ] = 0.0
 e147: [  x_56 * x_13 ] = 0.0
 e148: [  x_56 * x_35 ] = 0.0
 e149: [  x_57 * x_43 ] = 0.0
 e150: [  x_57 * x_61 ] = 0.0
 e151: [  x_59 * x_6 ] = 0.0
 e152: [  x_59 * x_13 ] = 0.0
 e153: [  x_59 * x_32 ] = 0.0
 e154: [  x_59 * x_77 ] = 0.0
 e155: [  x_60 * x_48 ] = 0.0
 e156: [  x_60 * x_77 ] = 0.0
 e157: [  x_61 * x_21 ] = 0.0
 e158: [  x_62 * x_2 ] = 0.0
 e159: [  x_62 * x_6 ] = 0.0
 e160: [  x_62 * x_11 ] = 0.0
 e161: [  x_62 * x_13 ] = 0.0
 e162: [  x_62 * x_51 ] = 0.0
 e163: [  x_63 * x_1 ] = 0.0
 e164: [  x_63 * x_11 ] = 0.0
 e165: [  x_63 * x_33 ] = 0.0
 e166: [  x_63 * x_74 ] = 0.0
 e167: [  x_64 * x_3 ] = 0.0
 e168: [  x_64 * x_16 ] = 0.0
 e169: [  x_64 * x_29 ] = 0.0
 e170: [  x_64 * x_70 ] = 0.0
 e171: [  x_65 * x_10 ] = 0.0
 e172: [  x_65 * x_50 ] = 0.0
 e173: [  x_65 * x_67 ] = 0.0
 e174: [  x_65 * x_75 ] = 0.0
 e175: [  x_66 * x_43 ] = 0.0
 e176: [  x_66 * x_79 ] = 0.0
 e177: [  x_67 * x_59 ] = 0.0
 e178: [  x_67 * x_60 ] = 0.0
 e179: [  x_68 * x_9 ] = 0.0
 e180: [  x_68 * x_15 ] = 0.0
 e181: [  x_68 * x_30 ] = 0.0
 e182: [  x_69 * x_45 ] = 0.0
 e183: [  x_69 * x_55 ] = 0.0
 e184: [  x_70 * x_13 ] = 0.0
 e185: [  x_70 * x_39 ] = 0.0
 e186: [  x_70 * x_71 ] = 0.0
 e187: [  x_71 * x_17 ] = 0.0
 e188: [  x_71 * x_22 ] = 0.0
 e189: [  x_71 * x_70 ] = 0.0
 e190: [  x_72 * x_19 ] = 0.0
 e191: [  x_72 * x_37 ] = 0.0
 e192: [  x_72 * x_77 ] = 0.0
 e193: [  x_73 * x_43 ] = 0.0
 e194: [  x_73 * x_52 ] = 0.0
 e195: [  x_73 * x_71 ] = 0.0
 e196: [  x_74 * x_79 ] = 0.0
 e197: [  x_75 * x_4 ] = 0.0
 e198: [  x_75 * x_25 ] = 0.0
 e199: [  x_76 * x_32 ] = 0.0
 e200: [  x_76 * x_36 ] = 0.0
 e201: [  x_76 * x_48 ] = 0.0
 e202: [  x_76 * x_76 ] = 0.0
 e203: [  x_77 * x_15 ] = 0.0
 e204: [  x_77 * x_42 ] = 0.0
 e205: [  x_78 * x_5 ] = 0.0
 e206: [  x_78 * x_9 ] = 0.0
 e207: [  x_78 * x_17 ] = 0.0
 e208: [  x_78 * x_23 ] = 0.0
 e209: [  x_78 * x_45 ] = 0.0
 e210: [  x_78 * x_72 ] = 0.0
 e211: [  x_79 * x_65 ] = 0.0
 e212: [  x_79 * x_74 ] = 0.0
 e213: [  x_80 * x_4 ] = 0.0
 e214: [  x_80 * x_36 ] = 0.0
 e215: [  x_80 * x_44 ] = 0.0
 e216: [  x_80 * x_49 ] = 0.0

Bounds
 x_1 <= 1.0
 x_2 <= 1.0
 x_3 <= 1.0
 x_4 <= 1.0
 x_5 <= 1.0
 x_6 <= 1.0
 x_7 <= 1.0
 x_8 <= 1.0
 x_9 <= 1.0
 x_10 <= 1.0
 x_11 <= 1.0
 x_12 <= 1.0
 x_13 <= 1.0
 x_14 <= 1.0
 x_15 <= 1.0
 x_16 <= 1.0
 x_17 <= 1.0
 x_18 <= 1.0
 x_19 <= 1.0
 x_20 <= 1.0
 x_21 <= 1.0
 x_22 <= 1.0
 x_23 <= 1.0
 x_24 <= 1.0
 x_25 <= 1.0
 x_26 <= 1.0
 x_27 <= 1.0
 x_28 <= 1.0
 x_29 <= 1.0
 x_30 <= 1.0
 x_31 <= 1.0
 x_32 <= 1.0
 x_33 <= 1.0
 x_34 <= 1.0
 x_35 <= 1.0
 x_36 <= 1.0
 x_37 <= 1.0
 x_38 <= 1.0
 x_39 <= 1.0
 x_40 <= 1.0
 x_41 <= 1.0
 x_42 <= 1.0
 x_43 <= 1.0
 x_44 <= 1.0
 x_45 <= 1.0
 x_46 <= 1.0
 x_47 <= 1.0
 x_48 <= 1.0
 x_49 <= 1.0
 x_50 <= 1.0
 x_51 <= 1.0
 x_52 <= 1.0
 x_53 <= 1.0
 x_54 <= 1.0
 x_55 <= 1.0
 x_56 <= 1.0
 x_57 <= 1.0
 x_58 <= 1.0
 x_59 <= 1.0
 x_60 <= 1.0
 x_61 <= 1.0
 x_62 <= 1.0
 x_63 <= 1.0
 x_64 <= 1.0
 x_65 <= 1.0
 x_66 <= 1.0
 x_67 <= 1.0
 x_68 <= 1.0
 x_69 <= 1.0
 x_70 <= 1.0
 x_71 <= 1.0
 x_72 <= 1.0
 x_73 <= 1.0
 x_74 <= 1.0
 x_75 <= 1.0
 x_76 <= 1.0
 x_77 <= 1.0
 x_78 <= 1.0
 x_79 <= 1.0
 x_80 <= 1.0

End